
Gurobi 11.0.3 (linux64) logging started Fri Nov 22 21:18:43 2024

Set parameter LogFile to value "/home/yihong/Coding/OR_SUC/SUC_results_bigM100000_thread4/case24_ieee_rts_theta0.1_epsilon0.025_gurobi_seed840000_num_gen100_N_WDR100_load_scaling_factor1_proposed_T12quadra_cost.txt"
Set parameter TimeLimit to value 3600
Gurobi Optimizer version 11.0.3 build v11.0.3rc0 (linux64 - "Ubuntu 20.04.6 LTS")

CPU model: AMD EPYC 7532 32-Core Processor, instruction set [SSE2|AVX|AVX2]
Thread count: 64 physical cores, 128 logical processors, using up to 4 threads

Optimize a model with 25722 rows, 14981 columns and 353498 nonzeros
Model fingerprint: 0x343c0044
Model has 1200 quadratic constraints
Variable types: 13781 continuous, 1200 integer (1200 binary)
Coefficient statistics:
  Matrix range     [3e-04, 2e+03]
  QMatrix range    [2e-03, 8e-03]
  QLMatrix range   [8e-01, 6e+01]
  Objective range  [1e+00, 1e+00]
  Bounds range     [1e+00, 1e+00]
  RHS range        [1e+00, 9e+03]
Presolve removed 20963 rows and 6596 columns
Presolve time: 0.12s
Presolved: 4759 rows, 8385 columns, 28697 nonzeros
Presolved model has 1200 quadratic constraint(s)
Variable types: 7185 continuous, 1200 integer (1200 binary)

Root relaxation: objective 1.936127e+04, 4099 iterations, 0.08 seconds (0.11 work units)

    Nodes    |    Current Node    |     Objective Bounds      |     Work
 Expl Unexpl |  Obj  Depth IntInf | Incumbent    BestBd   Gap | It/Node Time

     0     0 19361.2739    0    -          - 19361.2739      -     -    0s
     0     0 108439.448    0  433          - 108439.448      -     -    0s
     0     0 246316.264    0  287          - 246316.264      -     -    0s
     0     0 246324.664    0  144          - 246324.664      -     -    0s
     0     0 246466.596    0   97          - 246466.596      -     -    0s
     0     0 246470.599    0   97          - 246470.599      -     -    0s
     0     0 246471.060    0   97          - 246471.060      -     -    0s
     0     2 246471.060    0   97          - 246471.060      -     -    1s
H  112   112                    247469.98874 246491.271  0.40%  25.3    2s
*  112   112              35    247469.98874 246491.271  0.40%  25.4    2s
H  261   238                    246578.37390 246492.248  0.03%  24.1    2s
*  261   238              43    246578.37390 246492.248  0.03%  24.2    2s

Cutting planes:
  Gomory: 110
  Implied bound: 284
  MIR: 52
  Flow cover: 94
  RLT: 239

Explored 267 nodes (17424 simplex iterations) in 2.82 seconds (3.59 work units)
Thread count was 4 (of 128 available processors)

Solution count 2: 246578 247470 

Optimal solution found (tolerance 1.00e-03)
Warning: max constraint violation (2.4362e-09) exceeds tolerance
Best objective 2.465783739040e+05, best bound 2.464922483010e+05, gap 0.0349%
